Si8 O16
1.0
   5.1059808459697269    0.0000000000000000   -0.2637305066598322
   0.0000000000000013    8.1561148499999998    0.0000000000000005
   0.0000000000000000    0.0000000000000000    8.1288837199999993
Si O
8 16
direct
   0.0317015100000000    0.2289733100000000    0.8733159900000000 Si
   0.0204303300000000    0.0796749900000000    0.2300940200000000 Si
   0.5317015100000000    0.2272466900000000    0.3733159900000000 Si
   0.4430167700000000    0.5796246300000000    0.2241687100000000 Si
   0.4317504800000000    0.7290037600000000    0.5809503100000000 Si
   0.9317504800000000    0.7272162400000000    0.0809503100000000 Si
   0.5204303300000001    0.3765450100000000    0.7300940200000000 Si
   0.9430167699999999    0.8765953700000000    0.7241687100000000 Si
   0.8195604300000000    0.1499178100000000    0.3593890400000000 O
   0.1480802900000000    0.5949140100000000    0.1454674600000000 O
   0.0048330000000000    0.0663789800000000    0.7611602900000000 O
   0.8154557700000000    0.3612850400000000    0.8086860500000000 O
   0.3154557700000000    0.0949349600000000    0.3086860500000000 O
   0.5048330000000000    0.3898410200000000    0.2611602900000000 O
   0.4755862600000000    0.6846067700000000    0.3918943200000000 O
   0.6480802900000000    0.8613059900000000    0.6454674600000000 O
   0.1439147100000000    0.8063024700000000    0.5949644400000000 O
   0.3195604300000000    0.3063021900000000    0.8593890400000000 O
   0.4874430200000000    0.2715430700000000    0.5623516300000000 O
   0.9755862600000000    0.7716132300000000    0.8918943200000000 O
   0.4587054300000000    0.5663712100000000    0.6931207300000000 O
   0.9587054300000000    0.8898487899999999    0.1931197300000000 O
   0.6439147100000000    0.6499175300000000    0.0949644400000000 O
   0.9874430199999999    0.1846769300000000    0.0623516300000000 O
